# Solution for model F-JSSP-SDST
# Objective value = 3.1853999986355142e+04
B0(13) 0
B1(25) 0
B2(39) 1
B3(28) 0
B4(27) 0
B5(32) 1
B6(28) 1
B7(47) 0
B8(32) 0
B9(30) 0
B10(21) 1
B11(13) 1
B12(37) 0
B13(37) 0
B14(26) 1
B15(45) 0
B16(35) 1
B17(35) 0
B18(44) 0
B19(21) 1
B20(12) 0
B21(26) 1
B22(35) 1
B23(39) 0
B24(27) 0
B25(28) 0
B26(47) 1
B27(33) 0
B28(32) 0
B29(21) 1
B30(12) 1
B31(26) 0
B32(38) 0
B33(44) 1
B34(29) 1
B35(33) 0
B36(43) 0
B37(32) 1
B38(24) 0
B39(38) 0
B40(12) 1
B41(35) 0
B42(29) 0
B43(45) 1
B44(46) 0
B45(33) 1
B46(25) 0
B47(21) 1
B48(32) 0
B49(28) 1
B50(38) 0
B51(26) 0
B52(26) 0
B53(38) 1
B54(45) 0
B55(46) 0
B56(35) 0
B57(33) 1
B58(23) 0
B59(32) 1
B60(37) 1
B61(27) 0
B62(38) 1
B63(43) 0
B64(44) 1
B65(35) 0
B66(35) 0
B67(21) 0
B68(42) 1
B69(28) 1
B70(38) 0
B71(34) 1
B72(46) 0
B73(46) 1
B74(34) 0
B75(33) 0
B76(32) 1
B77(21) 0
B78(27) 1
B79(37) 0
B80(37) 1
B81(28) 0
B82(46) 0
B83(34) 1
B84(33) 0
B85(21) 1
B86(28) 1
B87(38) 0
B88(34) 1
B89(46) 0
B90(46) 1
B91(34) 0
B92(33) 0
B93(32) 1
B94(21) 0
B95(27) 1
B96(37) 0
B97(37) 1
B98(28) 0
B99(46) 1
B100(34) 0
B101(33) 1
B102(21) 0
B103(37) 0
B104(27) 1
B105(38) 1
B106(43) 0
B107(44) 1
B108(35) 0
B109(35) 0
B110(21) 1
B111(42) 0
B112(2) 1
B113(2) 0
B114(2) 0
B115(2) 0
B116(2) 0
B117(2) 1
B118(2) 0
B119(2) 0
B120(2) 0
B121(2) 0
B122(2) 0
B123(2) 0
B124(2) 0
B125(2) 0
B126(2) 0
B127(2) 0
B128(2) 0
B129(2) 0
B130(2) 0
B131(2) 0
B132(2) 0
B133(2) 0
B134(2) 0
B135(2) 0
B136(2) 0
B137(2) 0
B138(2) 0
B139(2) 0
B140(2) 1
B141(2) 0
B142(2) 0
B143(2) 0
B144(2) 0
B145(2) 0
B146(2) 0
B147(2) 1
B148(2) 0
B149(2) 0
B150(2) 0
B151(2) 0
B152(2) 0
B153(2) 0
B154(2) 0
B155(2) 0
B156(2) 0
B157(2) 0
B158(2) 0
B159(2) 0
B160(2) 0
B161(2) 0
B162(2) 0
B163(2) 0
B164(2) 0
B165(2) 0
B166(2) 0
B167(2) 0
B168(2) 0
B169(2) 0
B170(2) 0
B171(2) 0
B172(2) 0
B173(2) 0
B174(2) 0
B175(2) 0
B176(2) 0
B177(2) 0
B178(2) 0
B179(2) 0
B180(2) 0
B181(2) 0
B182(2) 0
B183(2) 0
B184(2) 0
B185(2) 0
B186(2) 0
B187(2) 0
B188(2) 0
B189(2) 0
B190(2) 0
B191(2) 0
B192(2) 0
B193(2) 0
B194(2) 0
B195(2) 0
B196(2) 0
B197(2) 0
B198(2) 0
B199(2) 0
B200(2) 0
B201(2) 0
B202(2) 1
B203(2) 0
B204(2) 0
B205(2) 0
B206(2) 0
B207(2) 0
B208(2) 0
B209(2) 0
B210(2) 1
B211(2) 0
B212(2) 1
B213(2) 0
B214(2) 0
B215(2) 0
B216(2) 0
B217(2) 0
B218(2) 0
B219(2) 0
B220(2) 0
B221(2) 0
B222(2) 0
B223(2) 0
B224(2) 0
B225(2) 1
B226(2) 0
B227(2) 1
B228(2) 0
B229(2) 0
B230(2) 0
B231(2) 0
B232(2) 0
B233(2) 0
B234(2) 0
B235(2) 0
B236(2) 0
B237(2) 0
B238(2) 0
B239(2) 0
B240(2) 0
B241(2) 1
B242(2) 0
B243(2) 0
B244(2) 0
B245(2) 0
B246(2) 1
B247(2) 0
B248(2) 1
B249(2) 0
B250(2) 0
B251(2) 1
B252(2) 1
B253(2) 1
B254(2) 0
B255(2) 1
B256(2) 1
B257(2) 0
B258(2) 1
B259(2) 1
B260(2) 1
B261(2) 0
B262(2) 1
B263(2) 0
B264(2) 0
B265(2) 0
B266(2) 0
B267(2) 0
B268(2) 0
B269(2) 1
B270(2) 0
B271(2) 0
B272(2) 0
B273(2) 0
B274(2) 1
B275(2) 0
B276(2) 1
B277(2) 0
B278(2) 0
B279(2) 0
B280(2) 1
B281(2) 0
B282(2) 0
B283(2) 0
B284(2) 0
B285(2) 0
B286(2) 0
B287(2) 0
B288(2) 0
B289(2) 0
B290(2) 0
B291(2) 0
B292(2) 0
B293(2) 0
B294(2) 0
B295(2) 0
B296(2) 0
B297(2) 1
B298(2) 0
B299(2) 0
B300(2) 0
B301(2) 0
B302(2) 0
B303(2) 0
B304(2) 0
B305(2) 0
B306(2) 0
B307(2) 0
B308(2) 0
B309(2) 0
B310(2) 1
B311(2) 0
B312(2) 0
B313(2) 0
B314(2) 0
B315(2) 0
B316(2) 0
B317(2) 0
B318(2) 0
B319(2) 1
B320(2) 0
B321(2) 0
B322(2) 0
B323(2) 0
B324(2) 0
B325(2) 0
B326(2) 0
B327(2) 0
B328(2) 0
B329(2) 0
B330(2) 0
B331(2) 0
B332(2) 0
B333(2) 1
B334(2) 0
B335(2) 0
B336(2) 0
B337(2) 0
B338(2) 1
B339(2) 0
B340(2) 0
B341(2) 0
B342(2) 0
B343(2) 0
B344(2) 1
B345(2) 0
B346(2) 0
B347(2) 0
B348(2) 0
B349(2) 0
B350(2) 0
B351(2) 0
B352(2) 0
B353(2) 0
B354(2) 0
B355(2) 0
B356(2) 0
B357(2) 0
B358(2) 0
B359(2) 1
B360(2) 0
B361(2) 1
B362(2) 1
B363(2) 0
B364(2) 0
B365(2) 1
B366(2) 0
B367(2) 0
B368(2) 0
B369(2) 0
B370(2) 0
B371(2) 0
B372(2) 0
B373(2) 0
B374(2) 0
B375(2) 0
B376(2) 0
B377(2) 0
B378(2) 0
B379(2) 0
B380(2) 0
B381(2) 0
B382(2) 0
B383(2) 0
B384(2) 0
B385(2) 0
B386(2) 0
B387(2) 0
B388(2) 0
B389(2) 0
B390(2) 0
B391(2) 0
B392(2) 0
B393(2) 0
B394(2) 0
B395(2) 0
B396(2) 0
B397(2) 0
B398(2) 0
B399(2) 0
B400(2) 0
B401(2) 0
B402(2) 0
B403(2) 0
B404(2) 0
B405(2) 0
B406(2) 0
B407(2) 0
B408(2) 0
B409(2) 1
B410(2) 0
B411(2) 1
B412(2) 0
B413(2) 0
B414(2) 0
B415(2) 0
B416(2) 0
B417(2) 0
B418(2) 0
B419(2) 0
B420(2) 0
B421(2) 0
B422(2) 0
B423(2) 0
B424(2) 1
B425(2) 0
B426(2) 0
B427(2) 0
B428(2) 0
B429(2) 0
B430(2) 0
B431(2) 0
B432(2) 0
B433(2) 0
B434(2) 0
B435(2) 0
B436(2) 0
B437(2) 0
B438(2) 1
B439(2) 0
B440(2) 0
B441(2) 0
B442(2) 0
B443(2) 0
B444(2) 0
B445(2) 0
B446(2) 1
B447(2) 0
B448(2) 0
B449(2) 0
B450(2) 0
B451(2) 0
B452(2) 0
B453(2) 0
B454(2) 0
B455(2) 0
B456(2) 0
B457(2) 0
B458(2) 0
B459(2) 0
B460(2) 0
B461(2) 0
B462(2) 0
B463(2) 1
B464(2) 0
B465(2) 0
B466(2) 1
B467(2) 1
B468(2) 0
B469(2) 1
B470(2) 0
B471(2) 0
B472(2) 1
B473(2) 0
B474(2) 0
B475(2) 0
B476(2) 0
B477(2) 1
B478(2) 0
B479(2) 0
B480(2) 0
B481(2) 0
B482(2) 0
B483(2) 1
B484(2) 0
B485(2) 0
B486(2) 0
B487(2) 0
B488(2) 0
B489(2) 0
B490(2) 0
B491(2) 0
B492(2) 0
B493(2) 0
B494(2) 0
B495(2) 0
B496(2) 0
B497(2) 0
B498(2) 0
B499(2) 0
B500(2) 0
B501(2) 0
B502(2) 0
B503(2) 0
B504(2) 1
B505(2) 0
B506(2) 0
B507(2) 0
B508(2) 1
B509(2) 0
B510(2) 0
B511(2) 0
B512(2) 0
B513(2) 1
B514(2) 1
B515(2) 0
B516(2) 0
B517(2) 1
B518(2) 0
B519(2) 1
B520(2) 0
B521(2) 1
B522(2) 0
B523(2) 0
B524(2) 1
B525(2) 0
B526(2) 0
B527(2) 0
B528(2) 1
B529(2) 0
B530(2) 0
B531(2) 1
B532(2) 0
B533(2) 0
B534(2) 0
B535(2) 0
B536(2) 0
B537(2) 1
B538(2) 0
B539(2) 0
B540(2) 0
B541(2) 1
B542(2) 0
B543(2) 0
B544(2) 0
B545(2) 0
B546(2) 1
B547(2) 0
B548(2) 0
B549(2) 0
B550(2) 0
B551(2) 0
B552(2) 0
B553(2) 1
B554(2) 0
B555(2) 0
B556(2) 0
B557(2) 0
B558(2) 0
B559(2) 0
B560(2) 0
B561(2) 0
B562(2) 0
B563(2) 0
B564(2) 0
B565(2) 0
B566(2) 0
B567(2) 0
B568(2) 0
B569(2) 0
B570(2) 1
B571(2) 0
B572(2) 0
B573(2) 0
B574(2) 0
B575(2) 1
B576(2) 0
B577(2) 0
B578(2) 0
B579(2) 1
B580(2) 0
B581(2) 0
B582(2) 0
B583(2) 0
B584(2) 0
B585(2) 0
B586(2) 0
B587(2) 0
B588(2) 0
B589(2) 0
B590(2) 0
B591(2) 0
B592(2) 0
B593(2) 0
B594(2) 0
B595(2) 0
B596(2) 0
B597(2) 0
B598(2) 0
B599(2) 0
B600(2) 0
B601(2) 0
B602(2) 0
B603(2) 0
B604(2) 0
B605(2) 0
B606(2) 0
B607(2) 0
B608(2) 0
B609(2) 1
B610(2) 0
B611(2) 0
B612(2) 0
B613(2) 0
B614(2) 0
B615(2) 0
B616(2) 0
B617(2) 1
B618(2) 0
B619(2) 0
B620(2) 0
B621(2) 0
B622(2) 0
B623(2) 0
B624(2) 0
B625(2) 0
B626(2) 0
B627(2) 0
B628(2) 0
B629(2) 0
B630(2) 0
B631(2) 0
B632(2) 0
B633(2) 0
B634(2) 0
B635(2) 0
B636(2) 0
B637(2) 0
B638(2) 0
B639(2) 0
B640(2) 0
B641(2) 1
B642(2) 0
B643(2) 0
B644(2) 1
B645(2) 0
B646(2) 0
B647(2) 0
B648(2) 0
B649(2) 0
B650(2) 0
B651(2) 0
B652(2) 0
B653(2) 0
B654(2) 0
B655(2) 1
B656(2) 0
B657(2) 0
B658(2) 0
B659(2) 0
B660(2) 0
B661(2) 0
B662(2) 0
B663(2) 0
B664(2) 0
B665(2) 0
B666(2) 0
B667(2) 0
B668(2) 0
B669(2) 0
B670(2) 0
B671(2) 0
B672(2) 1
B673(2) 0
B674(2) 0
B675(2) 0
B676(2) 0
B677(2) 0
B678(2) 0
B679(2) 0
B680(2) 0
B681(2) 1
B682(2) 0
B683(2) 0
B684(2) 0
B685(2) 0
B686(2) 1
B687(2) 0
B688(2) 1
B689(2) 0
B690(2) 0
B691(2) 0
B692(2) 0
B693(2) 0
B694(2) 0
B695(2) 1
B696(2) 0
B697(2) 1
B698(2) 0
B699(2) 0
B700(2) 0
B701(2) 0
B702(2) 0
B703(2) 0
B704(2) 0
B705(2) 0
B706(2) 0
B707(2) 0
B708(2) 0
B709(2) 0
B710(2) 0
B711(2) 0
B712(2) 0
B713(2) 0
B714(2) 0
B715(2) 0
B716(2) 0
B717(2) 0
B718(2) 0
B719(2) 0
B720(2) 0
B721(2) 0
B722(2) 0
B723(2) 1
B724(2) 0
B725(2) 0
B726(2) 0
B727(2) 0
B728(2) 0
B729(2) 0
B730(2) 0
B731(2) 0
B732(2) 0
B733(2) 1
B734(2) 0
B735(2) 0
B736(2) 1
B737(2) 0
B738(2) 0
B739(2) 0
B740(2) 0
B741(2) 0
B742(2) 1
B743(2) 0
B744(2) 0
B745(2) 0
B746(2) 0
B747(2) 0
B748(2) 0
B749(2) 0
B750(2) 0
B751(2) 1
B752(2) 0
B753(2) 0
B754(2) 0
B755(2) 0
B756(2) 0
B757(2) 0
B758(2) 0
B759(2) 1
B760(2) 1
B761(2) 0
B762(2) 0
B763(2) 0
B764(2) 1
B765(2) 0
B766(2) 1
B767(2) 0
B768(2) 0
B769(2) 0
B770(2) 0
B771(2) 0
B772(2) 0
B773(2) 1
B774(2) 0
B775(2) 0
B776(2) 0
B777(2) 1
B778(2) 1
B779(2) 0
B780(2) 1
B781(2) 0
B782(2) 0
B783(2) 0
B784(2) 0
B785(2) 0
B786(2) 1
B787(2) 1
B788(2) 0
B789(2) 0
B790(2) 1
B791(2) 0
B792(2) 1
B793(2) 1
B794(2) 0
B795(2) 0
B796(2) 0
B797(2) 0
B798(2) 0
B799(2) 1
B800(2) 0
B801(2) 0
B802(2) 0
B803(2) 0
B804(2) 0
B805(2) 0
B806(2) 0
B807(2) 0
B808(2) 0
B809(2) 0
B810(2) 0
B811(2) 0
B812(2) 0
B813(2) 1
B814(2) 1
B815(2) 0
B816(2) 0
B817(2) 1
B818(2) 0
B819(2) 0
B820(2) 0
B821(2) 0
B822(2) 0
B823(2) 0
B824(2) 0
B825(2) 1
B826(2) 1
B827(2) 0
B828(2) 0
B829(2) 1
B830(2) 0
B831(2) 0
B832(2) 0
B833(2) 0
B834(2) 0
B835(2) 1
B836(2) 1
B837(2) 1
B838(2) 0
B839(2) 0
B840(2) 0
B841(2) 1
B842(2) 1
B843(2) 0
B844(2) 1
B845(2) 0
B846(2) 0
B847(2) 0
B848(2) 1
B849(2) 0
B850(2) 0
B851(2) 1
B852(2) 0
B853(2) 0
B854(2) 0
B855(2) 0
B856(2) 0
B857(2) 0
B858(2) 1
B859(2) 0
B860(2) 0
B861(2) 0
B862(2) 0
B863(2) 0
B864(2) 0
B865(2) 1
B866(2) 1
B867(2) 0
B868(2) 0
B869(2) 1
B870(2) 0
B871(2) 0
B872(2) 0
B873(2) 0
B874(2) 0
B875(2) 0
B876(2) 0
B877(2) 0
B878(2) 0
B879(2) 0
B880(2) 0
B881(2) 1
B882(2) 0
B883(2) 0
B884(2) 0
B885(2) 0
B886(2) 0
B887(2) 1
B888(2) 0
B889(2) 0
B890(2) 0
B891(2) 0
B892(2) 0
B893(2) 0
B894(2) 0
B895(2) 0
B896(2) 0
B897(2) 0
B898(2) 0
C899(13) 0
C900(25) 0
C901(39) 0
C902(30) 0
C903(28) 0
C904(34) 2.2499999999994725e+02
C905(30) 5.2699999999999818e+02
C906(50) 0
C907(34) 0
C908(31) 0
C909(23) 6.7699999999999682e+02
C910(13) 250.99999999999
C911(37) 0
C912(38) 0
C913(28) 5.7399999928472357e+02
C914(46) 0
C915(36) 7.4999999925288773e+02
C916(36) 0
C917(45) 0
C918(23) 8.4499999925288773e+02
C919(12) 0
C920(26) 0
C921(36) 6.1999999523162842e+01
C922(40) 0
C923(28) 0
C924(29) 0
C925(49) 2.0699999999999909e+02
C926(35) 0
C927(33) 0
C928(23) 441
C929(12) 1.4599999999999682e+02
C930(26) 0
C931(39) 0
C932(45) 3.1799999932362243e+02
C933(30) 6.9499999999999818e+02
C934(34) 0
C935(45) 0
C936(33) 1.0239999992528792e+03
C937(24) 0
C938(38) 0
C939(12) 0
C940(36) 0
C941(30) 0
C942(46) 1.2799999999999727e+02
C943(47) 0
C944(35) 175
C945(27) 0
C946(23) 2.5999999999999091e+02
C947(33) 0
C948(28) 8.2999999999998181e+01
C949(38) 0
C950(26) 0
C951(28) 0
C952(40) 2.6699999997503846e+02
C953(48) 0
C954(47) 0
C955(37) 0
C956(35) 3.8999999997503846e+02
C957(25) 0
C958(33) 5.9299999997503858e+02
C959(37) 111
C960(27) 0
C961(39) 7.9499999997487544e+02
C962(45) 0
C963(45) 9.1899999997487510e+02
C964(37) 0
C965(37) 0
C966(23) 0
C967(43) 1.0769999999747124e+03
C968(28) 262
C969(38) 0
C970(35) 5.1099999925292360e+02
C971(47) 0
C972(48) 7.3599999932356741e+02
C973(36) 0
C974(36) 0
C975(33) 9.0199999999984107e+02
C976(23) 0
C977(27) 4.0999999928473903e+02
C978(37) 0
C979(38) 6.0199999997503119e+02
C980(30) 0
C981(47) 0
C982(35) 8.3299999999984107e+02
C983(34) 0
C984(22) 1.0149999992528856e+03
C985(28) 0
C986(38) 0
C987(35) 2.7099999925298829e+02
C988(47) 0
C989(48) 5.1099999932357787e+02
C990(36) 0
C991(36) 0
C992(33) 6.6399999997503858e+02
C993(23) 0
C994(27) 2.4199999928474048e+02
C995(37) 0
C996(38) 4.0699999997503437e+02
C997(30) 0
C998(47) 6.7499999932357787e+02
C999(35) 0
C1000(34) 8.5999999925288773e+02
C1001(22) 0
C1002(37) 0
C1003(27) 6.5699999928470675e+02
C1004(39) 1.0139999992847040e+03
C1005(45) 0
C1006(45) 1.2379999992847013e+03
C1007(37) 0
C1008(37) 0
C1009(23) 1.3829999992847006e+03
C1010(43) 0
C1011(1) 3.1853999986355142e+04
